     Program PWSCF v.7.1 starts on  5Sep2022 at 18:10:22

     Waiting for input...
     Reading input from standard input

     Current dimensions of program PWSCF are:
     Max number of different atomic species (ntypx) = 10
     Max number of k-points (npk) =  40000
     Max angular momentum in pseudopotentials (lmaxx) =  4
     Message from routine setup:
     using ibrav=0 with symmetry is DISCOURAGED, use correct ibrav instead

     R & G space division:  proc/nbgrp/npool/nimage =      24
     Subspace diagonalization in iterative solution of the eigenvalue problem:
     a serial algorithm will be used

     Using Slab Decomposition

     bravais-lattice index     =            0
     lattice parameter (alat)  =       7.1073  a.u.
     unit-cell volume          =     407.2428 (a.u.)^3
     number of atoms/cell      =            3
     number of atomic types    =            2
     number of electrons       =        50.00
     number of Kohn-Sham states=           30
     kinetic-energy cutoff     =     110.0000  Ry
     charge density cutoff     =     440.0000  Ry
     scf convergence threshold =      1.0E-08
     mixing beta               =       0.2000
     number of iterations used =            8  plain     mixing
     Exchange-correlation= PBE
                           (   1   4   3   4   0   0   0)
     Hubbard projectors: ortho-atomic
     Hubbard parameters of DFT+U (Dudarev formulation) in eV:
     U(Pt-5d) =  0.0001

     Internal variables: lda_plus_u = T, lda_plus_u_kind = 0

     celldm(1)=   7.107260  celldm(2)=   0.000000  celldm(3)=   0.000000
     celldm(4)=   0.000000  celldm(5)=   0.000000  celldm(6)=   0.000000

     crystal axes: (cart. coord. in units of alat)
               a(1) = (   0.990948   0.000000   0.000000 )
               a(2) = (  -0.495474   0.858186   0.000000 )
               a(3) = (   0.000000   0.000000   1.333872 )

     reciprocal axes: (cart. coord. in units 2 pi/alat)
               b(1) = (  1.009134  0.582624  0.000000 )
               b(2) = (  0.000000  1.165248  0.000000 )
               b(3) = (  0.000000  0.000000  0.749697 )

     PseudoPot. # 1 for Pt read from file:
     ./Pt.upf
     MD5 check sum: 3caa314b32314335c676ebce8d0bd64e
     Pseudo is Norm-conserving + core correction, Zval = 18.0
     Generated using ONCVPSP code by D. R. Hamann
     Using radial grid of 1374 points,  8 beta functions with:
                l(1) =   0
                l(2) =   0
                l(3) =   1
                l(4) =   1
                l(5) =   2
                l(6) =   2
                l(7) =   3
                l(8) =   3

     PseudoPot. # 2 for Se read from file:
     ./Se.upf
     MD5 check sum: 3cc46b3642295b3f4fdae63b742ce36d
     Pseudo is Norm-conserving + core correction, Zval = 16.0
     Generated using ONCVPSP code by D. R. Hamann
     Using radial grid of 1214 points,  6 beta functions with:
                l(1) =   0
                l(2) =   0
                l(3) =   1
                l(4) =   1
                l(5) =   2
                l(6) =   2

     atomic species   valence    mass     pseudopotential
        Pt            18.00   195.08400     Pt( 1.00)
        Se            16.00    78.96000     Se( 1.00)

     12 Sym. Ops., with inversion, found

                                    s                        frac. trans.

      isym =  1     identity

 cryst.   s( 1) = (     1          0          0      )
                  (     0          1          0      )
                  (     0          0          1      )

 cart.    s( 1) = (  1.0000000  0.0000000  0.0000000 )
                  (  0.0000000  1.0000000  0.0000000 )
                  (  0.0000000  0.0000000  1.0000000 )

      isym =  2     180 deg rotation - cart. axis [1,0,0]

[...]

      isym =  3     120 deg rotation - cryst. axis [0,0,1]

[...]

      isym =  6     180 deg rotation - cryst. axis [1,1,0]

[...]

      isym =  7     inversion

[...]

      isym =  8     inv. 180 deg rotation - cart. axis [1,0,0]

[...]

      isym =  9     inv. 120 deg rotation - cryst. axis [0,0,1]

 cryst.   s( 9) = (     0         -1          0      )
                  (     1          1          0      )
                  (     0          0         -1      )

 cart.    s( 9) = (  0.5000000  0.8660254  0.0000000 )
                  ( -0.8660254  0.5000000  0.0000000 )
                  (  0.0000000  0.0000000 -1.0000000 )

[...]

 cryst.   s(10) = (     1          1          0      )
                  (    -1          0          0      )
                  (     0          0         -1      )

 cart.    s(10) = (  0.5000000 -0.8660254  0.0000000 )
                  (  0.8660254  0.5000000  0.0000000 )
                  (  0.0000000  0.0000000 -1.0000000 )

[...]

      isym = 12     inv. 180 deg rotation - cryst. axis [1,1,0]

 cryst.   s(12) = (     0         -1          0      )
                  (    -1          0          0      )
                  (     0          0          1      )

 cart.    s(12) = (  0.5000000 -0.8660254  0.0000000 )
                  ( -0.8660254 -0.5000000  0.0000000 )
                  (  0.0000000  0.0000000  1.0000000 )

   Cartesian axes

     site n.     atom                  positions (alat units)
         1           Pt  tau(   1) = (   0.0000000   0.0000000   0.0000000  )
         2           Se  tau(   2) = (   0.4954747   0.2860619   0.9791000  )
         3           Se  tau(   3) = (  -0.0000005   0.5721246   0.3547718  )

   Crystallographic axes

     site n.     atom                  positions (cryst. coord.)
         1           Pt  tau(   1) = (  0.0000000  0.0000000  0.0000000  )
         2           Se  tau(   2) = (  0.6666670  0.3333330  0.7340286  )
         3           Se  tau(   3) = (  0.3333330  0.6666670  0.2659714  )

     number of k points=   196  Methfessel-Paxton smearing, width (Ry)=  0.0080
                       cart. coord. in units 2pi/alat
        k(    1) = (   0.0000000   0.0000000   0.0000000), wk =   0.0010758
        k(    2) = (   0.0000000   0.0000000   0.0681543), wk =   0.0021517
        k(    3) = (   0.0000000   0.0000000   0.1363086), wk =   0.0021517
        k(    4) = (   0.0000000   0.0000000   0.2044629), wk =   0.0021517
        k(    5) = (   0.0000000   0.0000000   0.2726172), wk =   0.0021517
        k(    6) = (   0.0000000   0.0000000   0.3407715), wk =   0.0021517
        k(    7) = (   0.0000000   0.0896345   0.0000000), wk =   0.0064551
        k(    8) = (   0.0000000   0.0896345   0.0681543), wk =   0.0064551
        k(    9) = (   0.0000000   0.0896345   0.1363086), wk =   0.0064551
        k(   10) = (   0.0000000   0.0896345   0.2044629), wk =   0.0064551
        k(   11) = (   0.0000000   0.0896345   0.2726172), wk =   0.0064551
        k(   12) = (   0.0000000   0.0896345   0.3407715), wk =   0.0064551
        k(   13) = (   0.0000000   0.1792689   0.0000000), wk =   0.0064551
        k(   14) = (   0.0000000   0.1792689   0.0681543), wk =   0.0064551
        k(   15) = (   0.0000000   0.1792689   0.1363086), wk =   0.0064551
        k(   16) = (   0.0000000   0.1792689   0.2044629), wk =   0.0064551
        k(   17) = (   0.0000000   0.1792689   0.2726172), wk =   0.0064551
        k(   18) = (   0.0000000   0.1792689   0.3407715), wk =   0.0064551
        k(   19) = (   0.0000000   0.2689034   0.0000000), wk =   0.0064551
        k(   20) = (   0.0000000   0.2689034   0.0681543), wk =   0.0064551
        k(   21) = (   0.0000000   0.2689034   0.1363086), wk =   0.0064551
        k(   22) = (   0.0000000   0.2689034   0.2044629), wk =   0.0064551
        k(   23) = (   0.0000000   0.2689034   0.2726172), wk =   0.0064551
        k(   24) = (   0.0000000   0.2689034   0.3407715), wk =   0.0064551
        k(   25) = (   0.0000000   0.3585378   0.0000000), wk =   0.0064551
        k(   26) = (   0.0000000   0.3585378   0.0681543), wk =   0.0064551
        k(   27) = (   0.0000000   0.3585378   0.1363086), wk =   0.0064551
        k(   28) = (   0.0000000   0.3585378   0.2044629), wk =   0.0064551
        k(   29) = (   0.0000000   0.3585378   0.2726172), wk =   0.0064551
        k(   30) = (   0.0000000   0.3585378   0.3407715), wk =   0.0064551
        k(   31) = (   0.0000000   0.4481723   0.0000000), wk =   0.0064551
        k(   32) = (   0.0000000   0.4481723   0.0681543), wk =   0.0064551
        k(   33) = (   0.0000000   0.4481723   0.1363086), wk =   0.0064551
        k(   34) = (   0.0000000   0.4481723   0.2044629), wk =   0.0064551
        k(   35) = (   0.0000000   0.4481723   0.2726172), wk =   0.0064551
        k(   36) = (   0.0000000   0.4481723   0.3407715), wk =   0.0064551
        k(   37) = (   0.0000000   0.5378067   0.0000000), wk =   0.0064551
        k(   38) = (   0.0000000   0.5378067   0.0681543), wk =   0.0064551
        k(   39) = (   0.0000000   0.5378067   0.1363086), wk =   0.0064551
        k(   40) = (   0.0000000   0.5378067   0.2044629), wk =   0.0064551
        k(   41) = (   0.0000000   0.5378067   0.2726172), wk =   0.0064551
        k(   42) = (   0.0000000   0.5378067   0.3407715), wk =   0.0064551
        k(   43) = (   0.0776257   0.1344517   0.0000000), wk =   0.0064551
        k(   44) = (   0.0776257   0.1344517   0.0681543), wk =   0.0129102
        k(   45) = (   0.0776257   0.1344517   0.1363086), wk =   0.0129102
        k(   46) = (   0.0776257   0.1344517   0.2044629), wk =   0.0129102
        k(   47) = (   0.0776257   0.1344517   0.2726172), wk =   0.0129102
        k(   48) = (   0.0776257   0.1344517   0.3407715), wk =   0.0129102
        k(   49) = (   0.0776257   0.2240861   0.0000000), wk =   0.0129102
        k(   50) = (   0.0776257   0.2240861   0.0681543), wk =   0.0129102
        k(   51) = (   0.0776257   0.2240861   0.1363086), wk =   0.0129102
        k(   52) = (   0.0776257   0.2240861   0.2044629), wk =   0.0129102
        k(   53) = (   0.0776257   0.2240861   0.2726172), wk =   0.0129102
        k(   54) = (   0.0776257   0.2240861   0.3407715), wk =   0.0129102
        k(   55) = (   0.0776257   0.3137206   0.0000000), wk =   0.0129102
        k(   56) = (   0.0776257   0.3137206   0.0681543), wk =   0.0129102
        k(   57) = (   0.0776257   0.3137206   0.1363086), wk =   0.0129102
        k(   58) = (   0.0776257   0.3137206   0.2044629), wk =   0.0129102
        k(   59) = (   0.0776257   0.3137206   0.2726172), wk =   0.0129102
        k(   60) = (   0.0776257   0.3137206   0.3407715), wk =   0.0129102
[...]
        k(  182) = (  -0.1552514   0.4481723  -0.0681543), wk =   0.0129102
        k(  183) = (  -0.1552514   0.4481723  -0.1363086), wk =   0.0129102
        k(  184) = (  -0.1552514   0.4481723  -0.2044629), wk =   0.0129102
        k(  185) = (  -0.1552514   0.4481723  -0.2726172), wk =   0.0129102
        k(  186) = (  -0.1552514   0.4481723  -0.3407715), wk =   0.0129102
        k(  187) = (  -0.1552514   0.5378067  -0.0681543), wk =   0.0129102
        k(  188) = (  -0.1552514   0.5378067  -0.1363086), wk =   0.0129102
        k(  189) = (  -0.1552514   0.5378067  -0.2044629), wk =   0.0129102
        k(  190) = (  -0.1552514   0.5378067  -0.2726172), wk =   0.0129102
        k(  191) = (  -0.1552514   0.5378067  -0.3407715), wk =   0.0129102
        k(  192) = (  -0.2328771   0.4929895  -0.0681543), wk =   0.0129102
        k(  193) = (  -0.2328771   0.4929895  -0.1363086), wk =   0.0129102
        k(  194) = (  -0.2328771   0.4929895  -0.2044629), wk =   0.0129102
        k(  195) = (  -0.2328771   0.4929895  -0.2726172), wk =   0.0129102
        k(  196) = (  -0.2328771   0.4929895  -0.3407715), wk =   0.0129102

                       cryst. coord.
        k(    1) = (   0.0000000   0.0000000   0.0000000), wk =   0.0010758
        k(    2) = (   0.0000000   0.0000000   0.0909091), wk =   0.0021517
        k(    3) = (   0.0000000   0.0000000   0.1818182), wk =   0.0021517
        k(    4) = (   0.0000000   0.0000000   0.2727273), wk =   0.0021517
        k(    5) = (   0.0000000   0.0000000   0.3636364), wk =   0.0021517
        k(    6) = (   0.0000000   0.0000000   0.4545455), wk =   0.0021517
        k(    7) = (   0.0000000   0.0769231   0.0000000), wk =   0.0064551
        k(    8) = (   0.0000000   0.0769231   0.0909091), wk =   0.0064551
        k(    9) = (   0.0000000   0.0769231   0.1818182), wk =   0.0064551
        k(   10) = (   0.0000000   0.0769231   0.2727273), wk =   0.0064551
        k(   11) = (   0.0000000   0.0769231   0.3636364), wk =   0.0064551
        k(   12) = (   0.0000000   0.0769231   0.4545455), wk =   0.0064551
        k(   13) = (   0.0000000   0.1538462   0.0000000), wk =   0.0064551
        k(   14) = (   0.0000000   0.1538462   0.0909091), wk =   0.0064551
        k(   15) = (   0.0000000   0.1538462   0.1818182), wk =   0.0064551
        k(   16) = (   0.0000000   0.1538462   0.2727273), wk =   0.0064551
        k(   17) = (   0.0000000   0.1538462   0.3636364), wk =   0.0064551
        k(   18) = (   0.0000000   0.1538462   0.4545455), wk =   0.0064551
        k(   19) = (   0.0000000   0.2307692   0.0000000), wk =   0.0064551
        k(   20) = (   0.0000000   0.2307692   0.0909091), wk =   0.0064551
        k(   21) = (   0.0000000   0.2307692   0.1818182), wk =   0.0064551
        k(   22) = (   0.0000000   0.2307692   0.2727273), wk =   0.0064551
        k(   23) = (   0.0000000   0.2307692   0.3636364), wk =   0.0064551
        k(   24) = (   0.0000000   0.2307692   0.4545455), wk =   0.0064551
        k(   25) = (   0.0000000   0.3076923   0.0000000), wk =   0.0064551
        k(   26) = (   0.0000000   0.3076923   0.0909091), wk =   0.0064551
        k(   27) = (   0.0000000   0.3076923   0.1818182), wk =   0.0064551
        k(   28) = (   0.0000000   0.3076923   0.2727273), wk =   0.0064551
        k(   29) = (   0.0000000   0.3076923   0.3636364), wk =   0.0064551
        k(   30) = (   0.0000000   0.3076923   0.4545455), wk =   0.0064551
        k(   31) = (   0.0000000   0.3846154   0.0000000), wk =   0.0064551
        k(   32) = (   0.0000000   0.3846154   0.0909091), wk =   0.0064551
        k(   33) = (   0.0000000   0.3846154   0.1818182), wk =   0.0064551
        k(   34) = (   0.0000000   0.3846154   0.2727273), wk =   0.0064551
        k(   35) = (   0.0000000   0.3846154   0.3636364), wk =   0.0064551
        k(   36) = (   0.0000000   0.3846154   0.4545455), wk =   0.0064551
        k(   37) = (   0.0000000   0.4615385   0.0000000), wk =   0.0064551
        k(   38) = (   0.0000000   0.4615385   0.0909091), wk =   0.0064551
        k(   39) = (   0.0000000   0.4615385   0.1818182), wk =   0.0064551
        k(   40) = (   0.0000000   0.4615385   0.2727273), wk =   0.0064551
        k(   41) = (   0.0000000   0.4615385   0.3636364), wk =   0.0064551
        k(   42) = (   0.0000000   0.4615385   0.4545455), wk =   0.0064551
        k(   43) = (   0.0769231   0.0769231   0.0000000), wk =   0.0064551
        k(   44) = (   0.0769231   0.0769231   0.0909091), wk =   0.0129102
        k(   45) = (   0.0769231   0.0769231   0.1818182), wk =   0.0129102
        k(   46) = (   0.0769231   0.0769231   0.2727273), wk =   0.0129102
        k(   47) = (   0.0769231   0.0769231   0.3636364), wk =   0.0129102
        k(   48) = (   0.0769231   0.0769231   0.4545455), wk =   0.0129102
        k(   49) = (   0.0769231   0.1538462   0.0000000), wk =   0.0129102
        k(   50) = (   0.0769231   0.1538462   0.0909091), wk =   0.0129102
        k(   51) = (   0.0769231   0.1538462   0.1818182), wk =   0.0129102
        k(   52) = (   0.0769231   0.1538462   0.2727273), wk =   0.0129102
        k(   53) = (   0.0769231   0.1538462   0.3636364), wk =   0.0129102
        k(   54) = (   0.0769231   0.1538462   0.4545455), wk =   0.0129102
        k(   55) = (   0.0769231   0.2307692   0.0000000), wk =   0.0129102
        k(   56) = (   0.0769231   0.2307692   0.0909091), wk =   0.0129102
        k(   57) = (   0.0769231   0.2307692   0.1818182), wk =   0.0129102
        k(   58) = (   0.0769231   0.2307692   0.2727273), wk =   0.0129102
        k(   59) = (   0.0769231   0.2307692   0.3636364), wk =   0.0129102
        k(   60) = (   0.0769231   0.2307692   0.4545455), wk =   0.0129102
[...]
        k(  182) = (  -0.1538462   0.4615385  -0.0909091), wk =   0.0129102
        k(  183) = (  -0.1538462   0.4615385  -0.1818182), wk =   0.0129102
        k(  184) = (  -0.1538462   0.4615385  -0.2727273), wk =   0.0129102
        k(  185) = (  -0.1538462   0.4615385  -0.3636364), wk =   0.0129102
        k(  186) = (  -0.1538462   0.4615385  -0.4545455), wk =   0.0129102
        k(  187) = (  -0.1538462   0.5384615  -0.0909091), wk =   0.0129102
        k(  188) = (  -0.1538462   0.5384615  -0.1818182), wk =   0.0129102
        k(  189) = (  -0.1538462   0.5384615  -0.2727273), wk =   0.0129102
        k(  190) = (  -0.1538462   0.5384615  -0.3636364), wk =   0.0129102
        k(  191) = (  -0.1538462   0.5384615  -0.4545455), wk =   0.0129102
        k(  192) = (  -0.2307692   0.5384615  -0.0909091), wk =   0.0129102
        k(  193) = (  -0.2307692   0.5384615  -0.1818182), wk =   0.0129102
        k(  194) = (  -0.2307692   0.5384615  -0.2727273), wk =   0.0129102
        k(  195) = (  -0.2307692   0.5384615  -0.3636364), wk =   0.0129102
        k(  196) = (  -0.2307692   0.5384615  -0.4545455), wk =   0.0129102

     Initial potential from superposition of free atoms

     starting charge      49.9997, renormalised to      50.0000

     HUBBARD ENERGY =    0.0000  (Ry)

     STARTING HUBBARD OCCUPATIONS:

     =================== HUBBARD OCCUPATIONS ===================
     ------------------------ ATOM    1 ------------------------
     Tr[ns(  1)] =   9.00000
     eigenvalues:
       0.900  0.900  0.900  0.900  0.900
     eigenvectors (columns):
       1.000  0.000  0.000  0.000  0.000
       0.000  1.000  0.000  0.000  0.000
       0.000  0.000  1.000  0.000  0.000
       0.000  0.000  0.000  1.000  0.000
       0.000  0.000  0.000  0.000  1.000
     occupation matrix ns (before diag.):
       0.900  0.000  0.000  0.000  0.000
       0.000  0.900  0.000  0.000  0.000
       0.000  0.000  0.900  0.000  0.000
       0.000  0.000  0.000  0.900  0.000
       0.000  0.000  0.000  0.000  0.900

     Number of occupied Hubbard levels =    9.0000

     Atomic wfc used for Hubbard projectors are orthogonalized

     Starting wfcs are   28 randomized atomic wfcs +    2 random wfcs

     Self-consistent Calculation

     iteration #  1     ecut=   110.00 Ry     beta= 0.20
     Davidson diagonalization with overlap

     ethr =  1.00E-02,  avg # of iterations =  5.9

[...]

     Threshold (ethr) on eigenvalues was too large:
     Diagonalizing with lowered threshold

     Davidson diagonalization with overlap

[...]

     WARNING: integrated charge=    49.99991997, expected=    50.00000000

     total energy              =    -746.17419233 Ry
     estimated scf accuracy    <       0.28529052 Ry

[...]

     WARNING: integrated charge=    49.99999368, expected=    50.00000000

[...]

     total energy              =    -746.20907714 Ry
     estimated scf accuracy    <       0.00000003 Ry

     iteration # 11     ecut=   110.00 Ry     beta= 0.20
     Davidson diagonalization with overlap

     ethr =  5.22E-11,  avg # of iterations =  2.0

     =================== HUBBARD OCCUPATIONS ===================
     ------------------------ ATOM    1 ------------------------
     Tr[ns(  1)] =   8.74060
     eigenvalues:
       0.719  0.719  0.975  0.979  0.979
     eigenvectors (columns):
       0.000  0.000 -1.000 -0.000  0.000
      -0.419  0.691  0.000 -0.560  0.185
       0.691  0.419  0.000  0.185  0.560
       0.504  0.306 -0.000 -0.253 -0.767
      -0.306  0.504 -0.000  0.767 -0.253
     occupation matrix ns (before diag.):
       0.975 -0.000 -0.000 -0.000 -0.000
      -0.000  0.809 -0.000  0.000 -0.124
      -0.000 -0.000  0.809 -0.124 -0.000
      -0.000  0.000 -0.124  0.888  0.000
      -0.000 -0.124 -0.000  0.000  0.888

     Number of occupied Hubbard levels =    8.7406

     HUBBARD ENERGY =    0.0000  (Ry)

     End of self-consistent calculation

          k = 0.0000 0.0000 0.0000 (  7969 PWs)   bands (ev):

   -85.6064 -39.7506 -39.7506 -39.7231 -34.7031 -34.7031 -34.7018 -34.7018
   -34.6961 -34.6961 -34.6916 -34.6913 -34.6906 -34.6906  -1.6821   1.1165
     6.7130   7.8160   7.8161  10.0988  10.0988  11.2491  12.9490  12.9490
    14.4835  15.0006  15.0006  17.4719  17.9613  21.3102

     occupation numbers
     1.0000   1.0000   1.0000   1.0000   1.0000   1.0000   1.0000   1.0000
     1.0000   1.0000   1.0000   1.0000   1.0000   1.0000   1.0000   1.0000
     1.0000   1.0000   1.0000   1.0000   1.0000   1.0000   1.0000   1.0000
    -0.0000  -0.0000  -0.0000  -0.0000  -0.0000  -0.0000

[...]

          k = 0.0000 0.5378-0.3408 (  7935 PWs)   bands (ev):

[...]

          k =-0.0776 0.2241-0.0682 (  7934 PWs)   bands (ev):

[...]

          k =-0.2329 0.4930-0.3408 (  7937 PWs)   bands (ev):

   -85.6063 -39.7587 -39.7555 -39.7225 -34.7026 -34.7022 -34.7019 -34.7018
   -34.6948 -34.6944 -34.6935 -34.6926 -34.6907 -34.6903   0.1848   0.3669
     7.1262   7.5658   8.6393   8.9581   9.5034  10.4374  10.6265  11.3458
    11.6582  15.3974  15.9937  19.6949  20.3195  21.6267

     occupation numbers
     1.0000   1.0000   1.0000   1.0000   1.0000   1.0000   1.0000   1.0000
     1.0000   1.0000   1.0000   1.0000   1.0000   1.0000   1.0000   1.0000
     1.0000   1.0000   1.0000   1.0000   1.0000   1.0000   1.0000   1.0000
     1.0000  -0.0000  -0.0000  -0.0000  -0.0000  -0.0000

     the Fermi energy is    13.8421 ev

!    total energy              =    -746.20907714 Ry
     estimated scf accuracy    <          6.7E-09 Ry
     smearing contrib. (-TS)   =      -0.00003278 Ry
     internal energy E=F+TS    =    -746.20904436 Ry

     The total energy is F=E-TS. E is the sum of the following terms:
     one-electron contribution =    -344.65658453 Ry
     hartree contribution      =     189.34847651 Ry
     xc contribution           =    -144.40658629 Ry
     ewald contribution        =    -446.49435351 Ry
     Hubbard energy            =       0.00000345 Ry

     convergence has been achieved in  11 iterations

     Writing all to output data dir .//lscratch.bUPtSe2/bUPtSe2.save/

     General routines

     Parallel routines

     Hubbard U routines

   This run was terminated on:  18:12:38   5Sep2022

   JOB DONE.